\ENCODING=ISO-8859-1
\Problem name: IloCplex

Minimize
 obj: y
Subject To
 c1:   x1 + 2 r1 <= 21
 c2:   y1 - y <= -6
 c3:   x2 + 18 r2 <= 24
 c4:   - y + y2 <= -19
 c5:   x3 + 16 r3 <= 24
 c6:   - y + y3 <= -17
 c7:   x4 <= 20
 c8:   - y + y4 <= -5
 c9:   x5 + r5 <= 21
 c10:  - y + y5 <= -5
 c11:  x6 <= 21
 c12:  - y + y6 <= -4
 c13:  x7 + 16 r7 <= 24
 c14:  - y + y7 <= -17
 c15:  x8 <= 21
 c16:  - y + y8 <= -4
 c17:  x9 + 18 r9 <= 24
 c18:  - y + y9 <= -19
 c19:  x10 + r10 <= 23
 c20:  - y + y10 <= -3
 c21:  x1 + 2 r1 - x2 - 25 p12 - 25 q12 <= -4
 c22:  - 2 r1 + y1 - y2 - 25 p12 + 25 q12 <= 19
 c23:  x1 - x2 - 18 r2 - 25 p12 + 25 q12 >= -24
 c24:  y1 + 18 r2 - y2 - 25 p12 - 25 q12 >= -31
 c25:  x1 + 2 r1 - x3 - 25 p13 - 25 q13 <= -4
 c26:  - 2 r1 + y1 - y3 - 25 p13 + 25 q13 <= 19
 c27:  x1 - x3 - 16 r3 - 25 p13 + 25 q13 >= -24
 c28:  y1 + 16 r3 - y3 - 25 p13 - 25 q13 >= -33
 c29:  x1 + 2 r1 - x4 - 25 p14 - 25 q14 <= -4
 c30:  - 2 r1 + y1 - y4 - 25 p14 + 25 q14 <= 19
 c31:  x1 - x4 - 25 p14 + 25 q14 >= -20
 c32:  y1 - y4 - 25 p14 - 25 q14 >= -45
 c33:  x1 + 2 r1 - x5 - 25 p15 - 25 q15 <= -4
 c34:  - 2 r1 + y1 - y5 - 25 p15 + 25 q15 <= 19
 c35:  x1 - x5 - r5 - 25 p15 + 25 q15 >= -21
 c36:  y1 + r5 - y5 - 25 p15 - 25 q15 >= -45
 c37:  x1 + 2 r1 - x6 - 25 p16 - 25 q16 <= -4
 c38:  - 2 r1 + y1 - y6 - 25 p16 + 25 q16 <= 19
 c39:  x1 - x6 - 25 p16 + 25 q16 >= -21
 c40:  y1 - y6 - 25 p16 - 25 q16 >= -46
 c41:  x1 + 2 r1 - x7 - 25 p17 - 25 q17 <= -4
 c42:  - 2 r1 + y1 - y7 - 25 p17 + 25 q17 <= 19
 c43:  x1 - x7 - 16 r7 - 25 p17 + 25 q17 >= -24
 c44:  y1 + 16 r7 - y7 - 25 p17 - 25 q17 >= -33
 c45:  x1 + 2 r1 - x8 - 25 p18 - 25 q18 <= -4
 c46:  - 2 r1 + y1 - y8 - 25 p18 + 25 q18 <= 19
 c47:  x1 - x8 - 25 p18 + 25 q18 >= -21
 c48:  y1 - y8 - 25 p18 - 25 q18 >= -46
 c49:  x1 + 2 r1 - x9 - 25 p19 - 25 q19 <= -4
 c50:  - 2 r1 + y1 - y9 - 25 p19 + 25 q19 <= 19
 c51:  x1 - x9 - 18 r9 - 25 p19 + 25 q19 >= -24
 c52:  y1 + 18 r9 - y9 - 25 p19 - 25 q19 >= -31
 c53:  x1 + 2 r1 - x10 - 25 p110 - 25 q110 <= -4
 c54:  - 2 r1 + y1 - y10 - 25 p110 + 25 q110 <= 19
 c55:  x1 - x10 - r10 - 25 p110 + 25 q110 >= -23
 c56:  y1 + r10 - y10 - 25 p110 - 25 q110 >= -47
 c57:  x2 + 18 r2 - x3 - 25 p23 - 25 q23 <= -1
 c58:  - 18 r2 + y2 - y3 - 25 p23 + 25 q23 <= 6
 c59:  x2 - x3 - 16 r3 - 25 p23 + 25 q23 >= -24
 c60:  y2 + 16 r3 - y3 - 25 p23 - 25 q23 >= -33
 c61:  x2 + 18 r2 - x4 - 25 p24 - 25 q24 <= -1
 c62:  - 18 r2 + y2 - y4 - 25 p24 + 25 q24 <= 6
 c63:  x2 - x4 - 25 p24 + 25 q24 >= -20
 c64:  y2 - y4 - 25 p24 - 25 q24 >= -45
 c65:  x2 + 18 r2 - x5 - 25 p25 - 25 q25 <= -1
 c66:  - 18 r2 + y2 - y5 - 25 p25 + 25 q25 <= 6
 c67:  x2 - x5 - r5 - 25 p25 + 25 q25 >= -21
 c68:  y2 + r5 - y5 - 25 p25 - 25 q25 >= -45
 c69:  x2 + 18 r2 - x6 - 25 p26 - 25 q26 <= -1
 c70:  - 18 r2 + y2 - y6 - 25 p26 + 25 q26 <= 6
 c71:  x2 - x6 - 25 p26 + 25 q26 >= -21
 c72:  y2 - y6 - 25 p26 - 25 q26 >= -46
 c73:  x2 + 18 r2 - x7 - 25 p27 - 25 q27 <= -1
 c74:  - 18 r2 + y2 - y7 - 25 p27 + 25 q27 <= 6
 c75:  x2 - x7 - 16 r7 - 25 p27 + 25 q27 >= -24
 c76:  y2 + 16 r7 - y7 - 25 p27 - 25 q27 >= -33
 c77:  x2 + 18 r2 - x8 - 25 p28 - 25 q28 <= -1
 c78:  - 18 r2 + y2 - y8 - 25 p28 + 25 q28 <= 6
 c79:  x2 - x8 - 25 p28 + 25 q28 >= -21
 c80:  y2 - y8 - 25 p28 - 25 q28 >= -46
 c81:  x2 + 18 r2 - x9 - 25 p29 - 25 q29 <= -1
 c82:  - 18 r2 + y2 - y9 - 25 p29 + 25 q29 <= 6
 c83:  x2 - x9 - 18 r9 - 25 p29 + 25 q29 >= -24
 c84:  y2 + 18 r9 - y9 - 25 p29 - 25 q29 >= -31
 c85:  x2 + 18 r2 - x10 - 25 p210 - 25 q210 <= -1
 c86:  - 18 r2 + y2 - y10 - 25 p210 + 25 q210 <= 6
 c87:  x2 - x10 - r10 - 25 p210 + 25 q210 >= -23
 c88:  y2 + r10 - y10 - 25 p210 - 25 q210 >= -47
 c89:  x3 + 16 r3 - x4 - 25 p34 - 25 q34 <= -1
 c90:  - 16 r3 + y3 - y4 - 25 p34 + 25 q34 <= 8
 c91:  x3 - x4 - 25 p34 + 25 q34 >= -20
 c92:  y3 - y4 - 25 p34 - 25 q34 >= -45
 c93:  x3 + 16 r3 - x5 - 25 p35 - 25 q35 <= -1
 c94:  - 16 r3 + y3 - y5 - 25 p35 + 25 q35 <= 8
 c95:  x3 - x5 - r5 - 25 p35 + 25 q35 >= -21
 c96:  y3 + r5 - y5 - 25 p35 - 25 q35 >= -45
 c97:  x3 + 16 r3 - x6 - 25 p36 - 25 q36 <= -1
 c98:  - 16 r3 + y3 - y6 - 25 p36 + 25 q36 <= 8
 c99:  x3 - x6 - 25 p36 + 25 q36 >= -21
 c100: y3 - y6 - 25 p36 - 25 q36 >= -46
 c101: x3 + 16 r3 - x7 - 25 p37 - 25 q37 <= -1
 c102: - 16 r3 + y3 - y7 - 25 p37 + 25 q37 <= 8
 c103: x3 - x7 - 16 r7 - 25 p37 + 25 q37 >= -24
 c104: y3 + 16 r7 - y7 - 25 p37 - 25 q37 >= -33
 c105: x3 + 16 r3 - x8 - 25 p38 - 25 q38 <= -1
 c106: - 16 r3 + y3 - y8 - 25 p38 + 25 q38 <= 8
 c107: x3 - x8 - 25 p38 + 25 q38 >= -21
 c108: y3 - y8 - 25 p38 - 25 q38 >= -46
 c109: x3 + 16 r3 - x9 - 25 p39 - 25 q39 <= -1
 c110: - 16 r3 + y3 - y9 - 25 p39 + 25 q39 <= 8
 c111: x3 - x9 - 18 r9 - 25 p39 + 25 q39 >= -24
 c112: y3 + 18 r9 - y9 - 25 p39 - 25 q39 >= -31
 c113: x3 + 16 r3 - x10 - 25 p310 - 25 q310 <= -1
 c114: - 16 r3 + y3 - y10 - 25 p310 + 25 q310 <= 8
 c115: x3 - x10 - r10 - 25 p310 + 25 q310 >= -23
 c116: y3 + r10 - y10 - 25 p310 - 25 q310 >= -47
 c117: x4 - x5 - 25 p45 - 25 q45 <= -5
 c118: y4 - y5 - 25 p45 + 25 q45 <= 20
 c119: x4 - x5 - r5 - 25 p45 + 25 q45 >= -21
 c120: y4 + r5 - y5 - 25 p45 - 25 q45 >= -45
 c121: x4 - x6 - 25 p46 - 25 q46 <= -5
 c122: y4 - y6 - 25 p46 + 25 q46 <= 20
 c123: x4 - x6 - 25 p46 + 25 q46 >= -21
 c124: y4 - y6 - 25 p46 - 25 q46 >= -46
 c125: x4 - x7 - 25 p47 - 25 q47 <= -5
 c126: y4 - y7 - 25 p47 + 25 q47 <= 20
 c127: x4 - x7 - 16 r7 - 25 p47 + 25 q47 >= -24
 c128: y4 + 16 r7 - y7 - 25 p47 - 25 q47 >= -33
 c129: x4 - x8 - 25 p48 - 25 q48 <= -5
 c130: y4 - y8 - 25 p48 + 25 q48 <= 20
 c131: x4 - x8 - 25 p48 + 25 q48 >= -21
 c132: y4 - y8 - 25 p48 - 25 q48 >= -46
 c133: x4 - x9 - 25 p49 - 25 q49 <= -5
 c134: y4 - y9 - 25 p49 + 25 q49 <= 20
 c135: x4 - x9 - 18 r9 - 25 p49 + 25 q49 >= -24
 c136: y4 + 18 r9 - y9 - 25 p49 - 25 q49 >= -31
 c137: x4 - x10 - 25 p410 - 25 q410 <= -5
 c138: y4 - y10 - 25 p410 + 25 q410 <= 20
 c139: x4 - x10 - r10 - 25 p410 + 25 q410 >= -23
 c140: y4 + r10 - y10 - 25 p410 - 25 q410 >= -47
 c141: x5 + r5 - x6 - 25 p56 - 25 q56 <= -4
 c142: - r5 + y5 - y6 - 25 p56 + 25 q56 <= 20
 c143: x5 - x6 - 25 p56 + 25 q56 >= -21
 c144: y5 - y6 - 25 p56 - 25 q56 >= -46
 c145: x5 + r5 - x7 - 25 p57 - 25 q57 <= -4
 c146: - r5 + y5 - y7 - 25 p57 + 25 q57 <= 20
 c147: x5 - x7 - 16 r7 - 25 p57 + 25 q57 >= -24
 c148: y5 + 16 r7 - y7 - 25 p57 - 25 q57 >= -33
 c149: x5 + r5 - x8 - 25 p58 - 25 q58 <= -4
 c150: - r5 + y5 - y8 - 25 p58 + 25 q58 <= 20
 c151: x5 - x8 - 25 p58 + 25 q58 >= -21
 c152: y5 - y8 - 25 p58 - 25 q58 >= -46
 c153: x5 + r5 - x9 - 25 p59 - 25 q59 <= -4
 c154: - r5 + y5 - y9 - 25 p59 + 25 q59 <= 20
 c155: x5 - x9 - 18 r9 - 25 p59 + 25 q59 >= -24
 c156: y5 + 18 r9 - y9 - 25 p59 - 25 q59 >= -31
 c157: x5 + r5 - x10 - 25 p510 - 25 q510 <= -4
 c158: - r5 + y5 - y10 - 25 p510 + 25 q510 <= 20
 c159: x5 - x10 - r10 - 25 p510 + 25 q510 >= -23
 c160: y5 + r10 - y10 - 25 p510 - 25 q510 >= -47
 c161: x6 - x7 - 25 p67 - 25 q67 <= -4
 c162: y6 - y7 - 25 p67 + 25 q67 <= 21
 c163: x6 - x7 - 16 r7 - 25 p67 + 25 q67 >= -24
 c164: y6 + 16 r7 - y7 - 25 p67 - 25 q67 >= -33
 c165: x6 - x8 - 25 p68 - 25 q68 <= -4
 c166: y6 - y8 - 25 p68 + 25 q68 <= 21
 c167: x6 - x8 - 25 p68 + 25 q68 >= -21
 c168: y6 - y8 - 25 p68 - 25 q68 >= -46
 c169: x6 - x9 - 25 p69 - 25 q69 <= -4
 c170: y6 - y9 - 25 p69 + 25 q69 <= 21
 c171: x6 - x9 - 18 r9 - 25 p69 + 25 q69 >= -24
 c172: y6 + 18 r9 - y9 - 25 p69 - 25 q69 >= -31
 c173: x6 - x10 - 25 p610 - 25 q610 <= -4
 c174: y6 - y10 - 25 p610 + 25 q610 <= 21
 c175: x6 - x10 - r10 - 25 p610 + 25 q610 >= -23
 c176: y6 + r10 - y10 - 25 p610 - 25 q610 >= -47
 c177: x7 + 16 r7 - x8 - 25 p78 - 25 q78 <= -1
 c178: - 16 r7 + y7 - y8 - 25 p78 + 25 q78 <= 8
 c179: x7 - x8 - 25 p78 + 25 q78 >= -21
 c180: y7 - y8 - 25 p78 - 25 q78 >= -46
 c181: x7 + 16 r7 - x9 - 25 p79 - 25 q79 <= -1
 c182: - 16 r7 + y7 - y9 - 25 p79 + 25 q79 <= 8
 c183: x7 - x9 - 18 r9 - 25 p79 + 25 q79 >= -24
 c184: y7 + 18 r9 - y9 - 25 p79 - 25 q79 >= -31
 c185: x7 + 16 r7 - x10 - 25 p710 - 25 q710 <= -1
 c186: - 16 r7 + y7 - y10 - 25 p710 + 25 q710 <= 8
 c187: x7 - x10 - r10 - 25 p710 + 25 q710 >= -23
 c188: y7 + r10 - y10 - 25 p710 - 25 q710 >= -47
 c189: x8 - x9 - 25 p89 - 25 q89 <= -4
 c190: y8 - y9 - 25 p89 + 25 q89 <= 21
 c191: x8 - x9 - 18 r9 - 25 p89 + 25 q89 >= -24
 c192: y8 + 18 r9 - y9 - 25 p89 - 25 q89 >= -31
 c193: x8 - x10 - 25 p810 - 25 q810 <= -4
 c194: y8 - y10 - 25 p810 + 25 q810 <= 21
 c195: x8 - x10 - r10 - 25 p810 + 25 q810 >= -23
 c196: y8 + r10 - y10 - 25 p810 - 25 q810 >= -47
 c197: x9 + 18 r9 - x10 - 25 p910 - 25 q910 <= -1
 c198: - 18 r9 + y9 - y10 - 25 p910 + 25 q910 <= 6
 c199: x9 - x10 - r10 - 25 p910 + 25 q910 >= -23
 c200: y9 + r10 - y10 - 25 p910 - 25 q910 >= -47
Bounds
      x1 >= 0
 0 <= r1 <= 1
      y1 >= 0
      x2 >= 0
 0 <= r2 <= 1
      y2 >= 0
      x3 >= 0
 0 <= r3 <= 1
      y3 >= 0
      x4 >= 0
      y4 >= 0
      x5 >= 0
 0 <= r5 <= 1
      y5 >= 0
      x6 >= 0
      y6 >= 0
      x7 >= 0
 0 <= r7 <= 1
      y7 >= 0
      x8 >= 0
      y8 >= 0
      x9 >= 0
 0 <= r9 <= 1
      y9 >= 0
      x10 >= 0
 0 <= r10 <= 1
      y10 >= 0
 0 <= p12 <= 1
 0 <= q12 <= 1
 0 <= p13 <= 1
 0 <= q13 <= 1
 0 <= p14 <= 1
 0 <= q14 <= 1
 0 <= p15 <= 1
 0 <= q15 <= 1
 0 <= p16 <= 1
 0 <= q16 <= 1
 0 <= p17 <= 1
 0 <= q17 <= 1
 0 <= p18 <= 1
 0 <= q18 <= 1
 0 <= p19 <= 1
 0 <= q19 <= 1
 0 <= p110 <= 1
 0 <= q110 <= 1
 0 <= p23 <= 1
 0 <= q23 <= 1
 0 <= p24 <= 1
 0 <= q24 <= 1
 0 <= p25 <= 1
 0 <= q25 <= 1
 0 <= p26 <= 1
 0 <= q26 <= 1
 0 <= p27 <= 1
 0 <= q27 <= 1
 0 <= p28 <= 1
 0 <= q28 <= 1
 0 <= p29 <= 1
 0 <= q29 <= 1
 0 <= p210 <= 1
 0 <= q210 <= 1
 0 <= p34 <= 1
 0 <= q34 <= 1
 0 <= p35 <= 1
 0 <= q35 <= 1
 0 <= p36 <= 1
 0 <= q36 <= 1
 0 <= p37 <= 1
 0 <= q37 <= 1
 0 <= p38 <= 1
 0 <= q38 <= 1
 0 <= p39 <= 1
 0 <= q39 <= 1
 0 <= p310 <= 1
 0 <= q310 <= 1
 0 <= p45 <= 1
 0 <= q45 <= 1
 0 <= p46 <= 1
 0 <= q46 <= 1
 0 <= p47 <= 1
 0 <= q47 <= 1
 0 <= p48 <= 1
 0 <= q48 <= 1
 0 <= p49 <= 1
 0 <= q49 <= 1
 0 <= p410 <= 1
 0 <= q410 <= 1
 0 <= p56 <= 1
 0 <= q56 <= 1
 0 <= p57 <= 1
 0 <= q57 <= 1
 0 <= p58 <= 1
 0 <= q58 <= 1
 0 <= p59 <= 1
 0 <= q59 <= 1
 0 <= p510 <= 1
 0 <= q510 <= 1
 0 <= p67 <= 1
 0 <= q67 <= 1
 0 <= p68 <= 1
 0 <= q68 <= 1
 0 <= p69 <= 1
 0 <= q69 <= 1
 0 <= p610 <= 1
 0 <= q610 <= 1
 0 <= p78 <= 1
 0 <= q78 <= 1
 0 <= p79 <= 1
 0 <= q79 <= 1
 0 <= p710 <= 1
 0 <= q710 <= 1
 0 <= p89 <= 1
 0 <= q89 <= 1
 0 <= p810 <= 1
 0 <= q810 <= 1
 0 <= p910 <= 1
 0 <= q910 <= 1
Binaries
 r1  r2  r3  r5  r7  r9  r10  p12  q12  p13  q13  p14  q14  p15  q15  p16  q16 
 p17  q17  p18  q18  p19  q19  p110  q110  p23  q23  p24  q24  p25  q25  p26 
 q26  p27  q27  p28  q28  p29  q29  p210  q210  p34  q34  p35  q35  p36  q36 
 p37  q37  p38  q38  p39  q39  p310  q310  p45  q45  p46  q46  p47  q47  p48 
 q48  p49  q49  p410  q410  p56  q56  p57  q57  p58  q58  p59  q59  p510  q510 
 p67  q67  p68  q68  p69  q69  p610  q610  p78  q78  p79  q79  p710  q710  p89 
 q89  p810  q810  p910  q910 
Generals
 x1  y1  x2  y2  x3  y3  x4  y4  x5  y5  x6  y6  x7  y7  x8  y8  x9  y9  x10 
 y10 
End
